(set-info :source |
 Generated by Alive 0.1
 More info in N. P. Lopes, D. Menendez, S. Nagarakatte, J. Regehr.
 Provably Correct Peephole Optimizations with Alive. In PLDI'15.
|)

(set-info :status unknown)
(declare-fun %x () (_ BitVec 18))
(assert
 (and (distinct (bvmul %x (_ bv262143 18)) (bvsub (_ bv0 18) %x)) true))
(check-sat)
